
Gurobi 10.0.1 (win64) logging started Sun Aug 27 19:51:42 2023

Set parameter LogFile to value "results//log/Fattahi_setup_08_modified_old_deadline.log"
Gurobi Optimizer version 10.0.1 build v10.0.1rc0 (win64)

CPU model: AMD Ryzen 7 3700X 8-Core Processor, instruction set [SSE2|AVX|AVX2]
Thread count: 8 physical cores, 16 logical processors, using up to 16 threads

Optimize a model with 147 rows, 124 columns and 546 nonzeros
Model fingerprint: 0xb4ae6148
Model has 1 quadratic constraint
Variable types: 18 continuous, 106 integer (105 binary)
Coefficient statistics:
  Matrix range     [1e+00, 1e+06]
  QMatrix range    [1e+00, 1e+00]
  QLMatrix range   [1e+00, 4e+02]
  Objective range  [1e+00, 1e+00]
  Bounds range     [1e+00, 1e+00]
  RHS range        [1e+00, 3e+06]
Presolve removed 27 rows and 56 columns
Presolve time: 0.00s
Presolved: 127 rows, 74 columns, 535 nonzeros
Variable types: 24 continuous, 50 integer (49 binary)
Found heuristic solution: objective 1803.0000000
Found heuristic solution: objective 1487.0000000

Root relaxation: objective 0.000000e+00, 21 iterations, 0.00 seconds (0.00 work units)

    Nodes    |    Current Node    |     Objective Bounds      |     Work
 Expl Unexpl |  Obj  Depth IntInf | Incumbent    BestBd   Gap | It/Node Time

     0     0    0.00000    0    6 1487.00000    0.00000   100%     -    0s
H    0     0                    1485.0000000    0.00000   100%     -    0s
H    0     0                    1392.0000000    0.00000   100%     -    0s
H    0     0                    1366.0000000    0.00000   100%     -    0s
     0     0    0.00000    0    8 1366.00000    0.00000   100%     -    0s
H    0     0                    1241.0000000    0.00000   100%     -    0s
H    0     0                     944.0000000    0.00000   100%     -    0s
     0     0    0.00000    0    8  944.00000    0.00000   100%     -    0s
     0     0  453.87794    0    5  944.00000  453.87794  51.9%     -    0s
     0     0  573.00000    0    9  944.00000  573.00000  39.3%     -    0s
H    0     0                     925.0000000  576.00000  37.7%     -    0s
     0     0  586.00000    0   11  925.00000  586.00000  36.6%     -    0s
     0     0  587.00000    0    8  925.00000  587.00000  36.5%     -    0s
     0     0  590.00000    0   11  925.00000  590.00000  36.2%     -    0s
     0     0  590.00000    0    9  925.00000  590.00000  36.2%     -    0s
     0     0  597.00000    0   11  925.00000  597.00000  35.5%     -    0s
     0     0  600.00000    0    8  925.00000  600.00000  35.1%     -    0s
     0     0  600.00000    0    8  925.00000  600.00000  35.1%     -    0s
     0     0  604.00000    0    8  925.00000  604.00000  34.7%     -    0s
     0     0  640.00000    0    8  925.00000  640.00000  30.8%     -    0s
     0     2  640.00000    0    8  925.00000  640.00000  30.8%     -    0s

Cutting planes:
  Learned: 38
  Cover: 5
  Implied bound: 14
  MIR: 1
  Flow cover: 19
  Inf proof: 1
  RLT: 6
  Relax-and-lift: 1

Explored 788 nodes (3250 simplex iterations) in 0.09 seconds (0.03 work units)
Thread count was 16 (of 16 available processors)

Solution count 8: 925 944 1241 ... 1803

Optimal solution found (tolerance 1.00e-04)
Best objective 9.250000000000e+02, best bound 9.250000000000e+02, gap 0.0000%
Warning: constraint name "precedence between 0,1 to 0,0 if x_[j,l,h,z,i]=1" has a space
Warning: constraint name "precedence between 0,1 to 0,0 if x_[j,l,h,z,i]=1" has a space
Warning: default constraint names used to write mps file
